\ENCODING=ISO-8859-1
\Problem name: TSP

Minimize
 obj1: 19.6633570857017 x1 + 8.39834512590594 x2 + 20.5933096343962 x3
       + 21.4575334839146 x4 + 7.84613964185785 x5 + 18.5294201384865 x6
       + 17.1616174304918 x7 + 16.2439610291661 x8 + 4.24067962886733 x9
       + 11.3562391126783 x10 + 2.87240476713346 x11 + 1.90153898802116 x12
       + 14.2850639988453 x13 + 2.80249942998072 x14 + 3.82550874890979 x15
       + 5.34249068318604 x16 + 16.4769561899306 x17 + 12.1988171431597 x18
       + 13.1045534881254 x19 + 6.12079063847046 x20 + 10.1349690893716 x21
       + 9.33831298244378 x22 + 7.96630673085545 x23 + 6.06573725178875 x24
       + 2.35946243312709 x25 + 16.0907668592355 x26 + 2.06394739507175 x27
       + 6.47094035933634 x28 + 4.68353942109313 x29 + 17.8346446602474 x30
       + 16.1865055739992 x31 + 3.58406915846957 x32 + 5.6110328596339 x33
       + 6.40397679401566 x34 + 18.3452603350193 x35 + 14.1678305760992 x36
       + 10.9443613342742 x37 + 12.8305450852259 x38 + 3.60609216524357 x39
       + 5.36712253864502 x40 + 2.82575413132871 x41 + 15.8009103362754 x42
       + 6.50108494584447 x43 + 13.5638683191495 x44 + 13.9173397135615 x45
Subject To
 c1:  x1 + x2 + x3 + x4 + x5 + x6 + x7 + x8 + x9  = 2
 c2:  x1 + x10 + x11 + x12 + x13 + x14 + x15 + x16 + x17  = 2
 c3:  x2 + x10 + x18 + x19 + x20 + x21 + x22 + x23 + x24  = 2
 c4:  x3 + x11 + x18 + x25 + x26 + x27 + x28 + x29 + x30  = 2
 c5:  x4 + x12 + x19 + x25 + x31 + x32 + x33 + x34 + x35  = 2
 c6:  x5 + x13 + x20 + x26 + x31 + x36 + x37 + x38 + x39  = 2
 c7:  x6 + x14 + x21 + x27 + x32 + x36 + x40 + x41 + x42  = 2
 c8:  x7 + x15 + x22 + x28 + x33 + x37 + x40 + x43 + x44  = 2
 c9:  x8 + x16 + x23 + x29 + x34 + x38 + x41 + x43 + x45  = 2
 c10: x9 + x17 + x24 + x30 + x35 + x39 + x42 + x44 + x45  = 2
Bounds
 0 <= x1 <= 1
      x2 = 1
 0 <= x3 <= 1
 0 <= x4 <= 1
 0 <= x5 <= 1
 0 <= x6 <= 1
 0 <= x7 <= 1
      x8 = 0
 0 <= x9 <= 1
 0 <= x10 <= 1
 0 <= x11 <= 1
 0 <= x12 <= 1
      x13 = 0
 0 <= x14 <= 1
      x15 = 1
 0 <= x16 <= 1
 0 <= x17 <= 1
 0 <= x18 <= 1
 0 <= x19 <= 1
 0 <= x20 <= 1
 0 <= x21 <= 1
 0 <= x22 <= 1
      x23 = 1
 0 <= x24 <= 1
 1 <= x25 <= 0
 0 <= x26 <= 1
 0 <= x27 <= 1
 0 <= x28 <= 1
 0 <= x29 <= 1
 0 <= x30 <= 1
 0 <= x31 <= 1
 0 <= x32 <= 1
 0 <= x33 <= 1
 0 <= x34 <= 1
 0 <= x35 <= 1
 0 <= x36 <= 1
      x37 = 1
 0 <= x38 <= 1
 0 <= x39 <= 1
 0 <= x40 <= 1
 0 <= x41 <= 1
 0 <= x42 <= 1
 0 <= x43 <= 1
 0 <= x44 <= 1
 0 <= x45 <= 1
Binaries
 x1  x2  x3  x4  x5  x6  x7  x8  x9  x10  x11  x12  x13  x14  x15  x16  x17 
 x18  x19  x20  x21  x22  x23  x24  x25  x26  x27  x28  x29  x30  x31  x32 
 x33  x34  x35  x36  x37  x38  x39  x40  x41  x42  x43  x44  x45 
End
